p cnf 479 1933
-301 -302 0
-301 -303 0
-302 -303 0
-304 -305 0
-1 301 0
-1 304 0
-2 301 0
-2 305 0
-3 302 0
-3 304 0
-4 302 0
-4 305 0
-5 303 0
-5 304 0
-6 303 0
-6 305 0
-1 43 0
-1 7 0
-2 44 0
-2 8 0
-3 45 0
-3 9 0
-4 46 0
-4 10 0
-5 47 0
-5 11 0
-6 48 0
-6 12 0
-306 -307 0
-306 -308 0
-307 -308 0
-309 -310 0
-7 306 0
-7 309 0
-8 306 0
-8 310 0
-9 307 0
-9 309 0
-10 307 0
-10 310 0
-11 308 0
-11 309 0
-12 308 0
-12 310 0
-7 1 13 0
-7 1 49 0
-7 13 49 0
-8 2 14 0
-8 2 50 0
-8 14 50 0
-9 3 15 0
-9 3 51 0
-9 15 51 0
-10 4 16 0
-10 4 52 0
-10 16 52 0
-11 5 17 0
-11 5 53 0
-11 17 53 0
-12 6 18 0
-12 6 54 0
-12 18 54 0
-7 -1 -13 -49 0
-8 -2 -14 -50 0
-9 -3 -15 -51 0
-10 -4 -16 -52 0
-11 -5 -17 -53 0
-12 -6 -18 -54 0
-311 -312 0
-311 -313 0
-312 -313 0
-314 -315 0
-13 311 0
-13 314 0
-14 311 0
-14 315 0
-15 312 0
-15 314 0
-16 312 0
-16 315 0
-17 313 0
-17 314 0
-18 313 0
-18 315 0
-13 7 19 0
-13 7 55 0
-13 19 55 0
-14 8 20 0
-14 8 56 0
-14 20 56 0
-15 9 21 0
-15 9 57 0
-15 21 57 0
-16 10 22 0
-16 10 58 0
-16 22 58 0
-17 11 23 0
-17 11 59 0
-17 23 59 0
-18 12 24 0
-18 12 60 0
-18 24 60 0
-13 -7 -19 -55 0
-14 -8 -20 -56 0
-15 -9 -21 -57 0
-16 -10 -22 -58 0
-17 -11 -23 -59 0
-18 -12 -24 -60 0
-316 -317 0
-316 -318 0
-317 -318 0
-319 -320 0
-19 316 0
-19 319 0
-20 316 0
-20 320 0
-21 317 0
-21 319 0
-22 317 0
-22 320 0
-23 318 0
-23 319 0
-24 318 0
-24 320 0
-19 13 25 0
-19 13 61 0
-19 25 61 0
-20 14 26 0
-20 14 62 0
-20 26 62 0
-21 15 27 0
-21 15 63 0
-21 27 63 0
-22 16 28 0
-22 16 64 0
-22 28 64 0
-23 17 29 0
-23 17 65 0
-23 29 65 0
-24 18 30 0
-24 18 66 0
-24 30 66 0
-19 -13 -25 -61 0
-20 -14 -26 -62 0
-21 -15 -27 -63 0
-22 -16 -28 -64 0
-23 -17 -29 -65 0
-24 -18 -30 -66 0
-321 -322 0
-321 -323 0
-322 -323 0
-324 -325 0
-25 321 0
-25 324 0
-26 321 0
-26 325 0
-27 322 0
-27 324 0
-28 322 0
-28 325 0
-29 323 0
-29 324 0
-30 323 0
-30 325 0
-25 19 31 0
-25 19 67 0
-25 31 67 0
-26 20 32 0
-26 20 68 0
-26 32 68 0
-27 21 33 0
-27 21 69 0
-27 33 69 0
-28 22 34 0
-28 22 70 0
-28 34 70 0
-29 23 35 0
-29 23 71 0
-29 35 71 0
-30 24 36 0
-30 24 72 0
-30 36 72 0
-25 -19 -31 -67 0
-26 -20 -32 -68 0
-27 -21 -33 -69 0
-28 -22 -34 -70 0
-29 -23 -35 -71 0
-30 -24 -36 -72 0
-326 -327 0
-326 -328 0
-327 -328 0
-329 -330 0
-31 326 0
-31 329 0
-32 326 0
-32 330 0
-33 327 0
-33 329 0
-34 327 0
-34 330 0
-35 328 0
-35 329 0
-36 328 0
-36 330 0
-31 25 37 0
-31 25 73 0
-31 37 73 0
-32 26 38 0
-32 26 74 0
-32 38 74 0
-33 27 39 0
-33 27 75 0
-33 39 75 0
-34 28 40 0
-34 28 76 0
-34 40 76 0
-35 29 41 0
-35 29 77 0
-35 41 77 0
-36 30 42 0
-36 30 78 0
-36 42 78 0
-31 -25 -37 -73 0
-32 -26 -38 -74 0
-33 -27 -39 -75 0
-34 -28 -40 -76 0
-35 -29 -41 -77 0
-36 -30 -42 -78 0
-331 -332 0
-331 -333 0
-332 -333 0
-334 -335 0
-37 331 0
-37 334 0
-38 331 0
-38 335 0
-39 332 0
-39 334 0
-40 332 0
-40 335 0
-41 333 0
-41 334 0
-42 333 0
-42 335 0
-37 79 0
-37 31 0
-38 80 0
-38 32 0
-39 81 0
-39 33 0
-40 82 0
-40 34 0
-41 83 0
-41 35 0
-42 84 0
-42 36 0
-336 -337 0
-336 -338 0
-337 -338 0
-339 -340 0
-43 336 0
-43 339 0
-44 336 0
-44 340 0
-45 337 0
-45 339 0
-46 337 0
-46 340 0
-47 338 0
-47 339 0
-48 338 0
-48 340 0
-43 85 49 0
-43 85 1 0
-43 49 1 0
-44 86 50 0
-44 86 2 0
-44 50 2 0
-45 87 51 0
-45 87 3 0
-45 51 3 0
-46 88 52 0
-46 88 4 0
-46 52 4 0
-47 89 53 0
-47 89 5 0
-47 53 5 0
-48 90 54 0
-48 90 6 0
-48 54 6 0
-43 -85 -49 -1 0
-44 -86 -50 -2 0
-45 -87 -51 -3 0
-46 -88 -52 -4 0
-47 -89 -53 -5 0
-48 -90 -54 -6 0
-341 -342 0
-341 -343 0
-342 -343 0
-344 -345 0
-49 341 0
-49 344 0
-50 341 0
-50 345 0
-51 342 0
-51 344 0
-52 342 0
-52 345 0
-53 343 0
-53 344 0
-54 343 0
-54 345 0
-49 91 55 7 0
-49 91 55 43 0
-49 91 7 43 0
-49 55 7 43 0
-50 92 56 8 0
-50 92 56 44 0
-50 92 8 44 0
-50 56 8 44 0
-51 93 57 9 0
-51 93 57 45 0
-51 93 9 45 0
-51 57 9 45 0
-52 94 58 10 0
-52 94 58 46 0
-52 94 10 46 0
-52 58 10 46 0
-53 95 59 11 0
-53 95 59 47 0
-53 95 11 47 0
-53 59 11 47 0
-54 96 60 12 0
-54 96 60 48 0
-54 96 12 48 0
-54 60 12 48 0
-49 -91 -55 -7 0
-49 -91 -55 -43 0
-49 -91 -7 -43 0
-49 -55 -7 -43 0
-50 -92 -56 -8 0
-50 -92 -56 -44 0
-50 -92 -8 -44 0
-50 -56 -8 -44 0
-51 -93 -57 -9 0
-51 -93 -57 -45 0
-51 -93 -9 -45 0
-51 -57 -9 -45 0
-52 -94 -58 -10 0
-52 -94 -58 -46 0
-52 -94 -10 -46 0
-52 -58 -10 -46 0
-53 -95 -59 -11 0
-53 -95 -59 -47 0
-53 -95 -11 -47 0
-53 -59 -11 -47 0
-54 -96 -60 -12 0
-54 -96 -60 -48 0
-54 -96 -12 -48 0
-54 -60 -12 -48 0
55 0
-56 0
-57 0
-58 0
-59 0
-60 0
97 61 13 49 0
-97 -61 0
-97 -13 0
-97 -49 0
-61 -13 0
-61 -49 0
-13 -49 0
62 0
-61 0
-63 0
-64 0
-65 0
-66 0
104 68 20 56 0
-104 -68 0
-104 -20 0
-104 -56 0
-68 -20 0
-68 -56 0
-20 -56 0
-356 -357 0
-356 -358 0
-357 -358 0
-359 -360 0
-67 356 0
-67 359 0
-68 356 0
-68 360 0
-69 357 0
-69 359 0
-70 357 0
-70 360 0
-71 358 0
-71 359 0
-72 358 0
-72 360 0
-67 109 73 25 0
-67 109 73 61 0
-67 109 25 61 0
-67 73 25 61 0
-68 110 74 26 0
-68 110 74 62 0
-68 110 26 62 0
-68 74 26 62 0
-69 111 75 27 0
-69 111 75 63 0
-69 111 27 63 0
-69 75 27 63 0
-70 112 76 28 0
-70 112 76 64 0
-70 112 28 64 0
-70 76 28 64 0
-71 113 77 29 0
-71 113 77 65 0
-71 113 29 65 0
-71 77 29 65 0
-72 114 78 30 0
-72 114 78 66 0
-72 114 30 66 0
-72 78 30 66 0
-67 -109 -73 -25 0
-67 -109 -73 -61 0
-67 -109 -25 -61 0
-67 -73 -25 -61 0
-68 -110 -74 -26 0
-68 -110 -74 -62 0
-68 -110 -26 -62 0
-68 -74 -26 -62 0
-69 -111 -75 -27 0
-69 -111 -75 -63 0
-69 -111 -27 -63 0
-69 -75 -27 -63 0
-70 -112 -76 -28 0
-70 -112 -76 -64 0
-70 -112 -28 -64 0
-70 -76 -28 -64 0
-71 -113 -77 -29 0
-71 -113 -77 -65 0
-71 -113 -29 -65 0
-71 -77 -29 -65 0
-72 -114 -78 -30 0
-72 -114 -78 -66 0
-72 -114 -30 -66 0
-72 -78 -30 -66 0
75 0
-73 0
-74 0
-76 0
-77 0
-78 0
117 81 33 69 0
-117 -81 0
-117 -33 0
-117 -69 0
-81 -33 0
-81 -69 0
-33 -69 0
-366 -367 0
-366 -368 0
-367 -368 0
-369 -370 0
-79 366 0
-79 369 0
-80 366 0
-80 370 0
-81 367 0
-81 369 0
-82 367 0
-82 370 0
-83 368 0
-83 369 0
-84 368 0
-84 370 0
-79 121 73 0
-79 121 37 0
-79 73 37 0
-80 122 74 0
-80 122 38 0
-80 74 38 0
-81 123 75 0
-81 123 39 0
-81 75 39 0
-82 124 76 0
-82 124 40 0
-82 76 40 0
-83 125 77 0
-83 125 41 0
-83 77 41 0
-84 126 78 0
-84 126 42 0
-84 78 42 0
-79 -121 -73 -37 0
-80 -122 -74 -38 0
-81 -123 -75 -39 0
-82 -124 -76 -40 0
-83 -125 -77 -41 0
-84 -126 -78 -42 0
-371 -372 0
-371 -373 0
-372 -373 0
-374 -375 0
-85 371 0
-85 374 0
-86 371 0
-86 375 0
-87 372 0
-87 374 0
-88 372 0
-88 375 0
-89 373 0
-89 374 0
-90 373 0
-90 375 0
-85 127 91 0
-85 127 43 0
-85 91 43 0
-86 128 92 0
-86 128 44 0
-86 92 44 0
-87 129 93 0
-87 129 45 0
-87 93 45 0
-88 130 94 0
-88 130 46 0
-88 94 46 0
-89 131 95 0
-89 131 47 0
-89 95 47 0
-90 132 96 0
-90 132 48 0
-90 96 48 0
-85 -127 -91 -43 0
-86 -128 -92 -44 0
-87 -129 -93 -45 0
-88 -130 -94 -46 0
-89 -131 -95 -47 0
-90 -132 -96 -48 0
-376 -377 0
-376 -378 0
-377 -378 0
-379 -380 0
-91 376 0
-91 379 0
-92 376 0
-92 380 0
-93 377 0
-93 379 0
-94 377 0
-94 380 0
-95 378 0
-95 379 0
-96 378 0
-96 380 0
-91 133 97 49 0
-91 133 97 85 0
-91 133 49 85 0
-91 97 49 85 0
-92 134 98 50 0
-92 134 98 86 0
-92 134 50 86 0
-92 98 50 86 0
-93 135 99 51 0
-93 135 99 87 0
-93 135 51 87 0
-93 99 51 87 0
-94 136 100 52 0
-94 136 100 88 0
-94 136 52 88 0
-94 100 52 88 0
-95 137 101 53 0
-95 137 101 89 0
-95 137 53 89 0
-95 101 53 89 0
-96 138 102 54 0
-96 138 102 90 0
-96 138 54 90 0
-96 102 54 90 0
-91 -133 -97 -49 0
-91 -133 -97 -85 0
-91 -133 -49 -85 0
-91 -97 -49 -85 0
-92 -134 -98 -50 0
-92 -134 -98 -86 0
-92 -134 -50 -86 0
-92 -98 -50 -86 0
-93 -135 -99 -51 0
-93 -135 -99 -87 0
-93 -135 -51 -87 0
-93 -99 -51 -87 0
-94 -136 -100 -52 0
-94 -136 -100 -88 0
-94 -136 -52 -88 0
-94 -100 -52 -88 0
-95 -137 -101 -53 0
-95 -137 -101 -89 0
-95 -137 -53 -89 0
-95 -101 -53 -89 0
-96 -138 -102 -54 0
-96 -138 -102 -90 0
-96 -138 -54 -90 0
-96 -102 -54 -90 0
100 0
-97 0
-98 0
-99 0
-101 0
-102 0
142 106 58 94 0
-142 -106 0
-142 -58 0
-142 -94 0
-106 -58 0
-106 -94 0
-58 -94 0
-386 -387 0
-386 -388 0
-387 -388 0
-389 -390 0
-103 386 0
-103 389 0
-104 386 0
-104 390 0
-105 387 0
-105 389 0
-106 387 0
-106 390 0
-107 388 0
-107 389 0
-108 388 0
-108 390 0
-103 145 109 61 0
-103 145 109 97 0
-103 145 61 97 0
-103 109 61 97 0
-104 146 110 62 0
-104 146 110 98 0
-104 146 62 98 0
-104 110 62 98 0
-105 147 111 63 0
-105 147 111 99 0
-105 147 63 99 0
-105 111 63 99 0
-106 148 112 64 0
-106 148 112 100 0
-106 148 64 100 0
-106 112 64 100 0
-107 149 113 65 0
-107 149 113 101 0
-107 149 65 101 0
-107 113 65 101 0
-108 150 114 66 0
-108 150 114 102 0
-108 150 66 102 0
-108 114 66 102 0
-103 -145 -109 -61 0
-103 -145 -109 -97 0
-103 -145 -61 -97 0
-103 -109 -61 -97 0
-104 -146 -110 -62 0
-104 -146 -110 -98 0
-104 -146 -62 -98 0
-104 -110 -62 -98 0
-105 -147 -111 -63 0
-105 -147 -111 -99 0
-105 -147 -63 -99 0
-105 -111 -63 -99 0
-106 -148 -112 -64 0
-106 -148 -112 -100 0
-106 -148 -64 -100 0
-106 -112 -64 -100 0
-107 -149 -113 -65 0
-107 -149 -113 -101 0
-107 -149 -65 -101 0
-107 -113 -65 -101 0
-108 -150 -114 -66 0
-108 -150 -114 -102 0
-108 -150 -66 -102 0
-108 -114 -66 -102 0
111 0
-109 0
-110 0
-112 0
-113 0
-114 0
153 117 69 105 0
-153 -117 0
-153 -69 0
-153 -105 0
-117 -69 0
-117 -105 0
-69 -105 0
119 0
-115 0
-116 0
-117 0
-118 0
-120 0
161 125 77 113 0
-161 -125 0
-161 -77 0
-161 -113 0
-125 -77 0
-125 -113 0
-77 -113 0
-401 -402 0
-401 -403 0
-402 -403 0
-404 -405 0
-121 401 0
-121 404 0
-122 401 0
-122 405 0
-123 402 0
-123 404 0
-124 402 0
-124 405 0
-125 403 0
-125 404 0
-126 403 0
-126 405 0
-121 163 115 0
-121 163 79 0
-121 115 79 0
-122 164 116 0
-122 164 80 0
-122 116 80 0
-123 165 117 0
-123 165 81 0
-123 117 81 0
-124 166 118 0
-124 166 82 0
-124 118 82 0
-125 167 119 0
-125 167 83 0
-125 119 83 0
-126 168 120 0
-126 168 84 0
-126 120 84 0
-121 -163 -115 -79 0
-122 -164 -116 -80 0
-123 -165 -117 -81 0
-124 -166 -118 -82 0
-125 -167 -119 -83 0
-126 -168 -120 -84 0
131 0
-127 0
-128 0
-129 0
-130 0
-132 0
173 137 89 0
-173 -137 0
-173 -89 0
-137 -89 0
-411 -412 0
-411 -413 0
-412 -413 0
-414 -415 0
-133 411 0
-133 414 0
-134 411 0
-134 415 0
-135 412 0
-135 414 0
-136 412 0
-136 415 0
-137 413 0
-137 414 0
-138 413 0
-138 415 0
-133 175 139 91 0
-133 175 139 127 0
-133 175 91 127 0
-133 139 91 127 0
-134 176 140 92 0
-134 176 140 128 0
-134 176 92 128 0
-134 140 92 128 0
-135 177 141 93 0
-135 177 141 129 0
-135 177 93 129 0
-135 141 93 129 0
-136 178 142 94 0
-136 178 142 130 0
-136 178 94 130 0
-136 142 94 130 0
-137 179 143 95 0
-137 179 143 131 0
-137 179 95 131 0
-137 143 95 131 0
-138 180 144 96 0
-138 180 144 132 0
-138 180 96 132 0
-138 144 96 132 0
-133 -175 -139 -91 0
-133 -175 -139 -127 0
-133 -175 -91 -127 0
-133 -139 -91 -127 0
-134 -176 -140 -92 0
-134 -176 -140 -128 0
-134 -176 -92 -128 0
-134 -140 -92 -128 0
-135 -177 -141 -93 0
-135 -177 -141 -129 0
-135 -177 -93 -129 0
-135 -141 -93 -129 0
-136 -178 -142 -94 0
-136 -178 -142 -130 0
-136 -178 -94 -130 0
-136 -142 -94 -130 0
-137 -179 -143 -95 0
-137 -179 -143 -131 0
-137 -179 -95 -131 0
-137 -143 -95 -131 0
-138 -180 -144 -96 0
-138 -180 -144 -132 0
-138 -180 -96 -132 0
-138 -144 -96 -132 0
-416 -417 0
-416 -418 0
-417 -418 0
-419 -420 0
-139 416 0
-139 419 0
-140 416 0
-140 420 0
-141 417 0
-141 419 0
-142 417 0
-142 420 0
-143 418 0
-143 419 0
-144 418 0
-144 420 0
-139 181 145 97 0
-139 181 145 133 0
-139 181 97 133 0
-139 145 97 133 0
-140 182 146 98 0
-140 182 146 134 0
-140 182 98 134 0
-140 146 98 134 0
-141 183 147 99 0
-141 183 147 135 0
-141 183 99 135 0
-141 147 99 135 0
-142 184 148 100 0
-142 184 148 136 0
-142 184 100 136 0
-142 148 100 136 0
-143 185 149 101 0
-143 185 149 137 0
-143 185 101 137 0
-143 149 101 137 0
-144 186 150 102 0
-144 186 150 138 0
-144 186 102 138 0
-144 150 102 138 0
-139 -181 -145 -97 0
-139 -181 -145 -133 0
-139 -181 -97 -133 0
-139 -145 -97 -133 0
-140 -182 -146 -98 0
-140 -182 -146 -134 0
-140 -182 -98 -134 0
-140 -146 -98 -134 0
-141 -183 -147 -99 0
-141 -183 -147 -135 0
-141 -183 -99 -135 0
-141 -147 -99 -135 0
-142 -184 -148 -100 0
-142 -184 -148 -136 0
-142 -184 -100 -136 0
-142 -148 -100 -136 0
-143 -185 -149 -101 0
-143 -185 -149 -137 0
-143 -185 -101 -137 0
-143 -149 -101 -137 0
-144 -186 -150 -102 0
-144 -186 -150 -138 0
-144 -186 -102 -138 0
-144 -150 -102 -138 0
-421 -422 0
-421 -423 0
-422 -423 0
-424 -425 0
-145 421 0
-145 424 0
-146 421 0
-146 425 0
-147 422 0
-147 424 0
-148 422 0
-148 425 0
-149 423 0
-149 424 0
-150 423 0
-150 425 0
-145 187 151 103 0
-145 187 151 139 0
-145 187 103 139 0
-145 151 103 139 0
-146 188 152 104 0
-146 188 152 140 0
-146 188 104 140 0
-146 152 104 140 0
-147 189 153 105 0
-147 189 153 141 0
-147 189 105 141 0
-147 153 105 141 0
-148 190 154 106 0
-148 190 154 142 0
-148 190 106 142 0
-148 154 106 142 0
-149 191 155 107 0
-149 191 155 143 0
-149 191 107 143 0
-149 155 107 143 0
-150 192 156 108 0
-150 192 156 144 0
-150 192 108 144 0
-150 156 108 144 0
-145 -187 -151 -103 0
-145 -187 -151 -139 0
-145 -187 -103 -139 0
-145 -151 -103 -139 0
-146 -188 -152 -104 0
-146 -188 -152 -140 0
-146 -188 -104 -140 0
-146 -152 -104 -140 0
-147 -189 -153 -105 0
-147 -189 -153 -141 0
-147 -189 -105 -141 0
-147 -153 -105 -141 0
-148 -190 -154 -106 0
-148 -190 -154 -142 0
-148 -190 -106 -142 0
-148 -154 -106 -142 0
-149 -191 -155 -107 0
-149 -191 -155 -143 0
-149 -191 -107 -143 0
-149 -155 -107 -143 0
-150 -192 -156 -108 0
-150 -192 -156 -144 0
-150 -192 -108 -144 0
-150 -156 -108 -144 0
-426 -427 0
-426 -428 0
-427 -428 0
-429 -430 0
-151 426 0
-151 429 0
-152 426 0
-152 430 0
-153 427 0
-153 429 0
-154 427 0
-154 430 0
-155 428 0
-155 429 0
-156 428 0
-156 430 0
-151 193 157 109 0
-151 193 157 145 0
-151 193 109 145 0
-151 157 109 145 0
-152 194 158 110 0
-152 194 158 146 0
-152 194 110 146 0
-152 158 110 146 0
-153 195 159 111 0
-153 195 159 147 0
-153 195 111 147 0
-153 159 111 147 0
-154 196 160 112 0
-154 196 160 148 0
-154 196 112 148 0
-154 160 112 148 0
-155 197 161 113 0
-155 197 161 149 0
-155 197 113 149 0
-155 161 113 149 0
-156 198 162 114 0
-156 198 162 150 0
-156 198 114 150 0
-156 162 114 150 0
-151 -193 -157 -109 0
-151 -193 -157 -145 0
-151 -193 -109 -145 0
-151 -157 -109 -145 0
-152 -194 -158 -110 0
-152 -194 -158 -146 0
-152 -194 -110 -146 0
-152 -158 -110 -146 0
-153 -195 -159 -111 0
-153 -195 -159 -147 0
-153 -195 -111 -147 0
-153 -159 -111 -147 0
-154 -196 -160 -112 0
-154 -196 -160 -148 0
-154 -196 -112 -148 0
-154 -160 -112 -148 0
-155 -197 -161 -113 0
-155 -197 -161 -149 0
-155 -197 -113 -149 0
-155 -161 -113 -149 0
-156 -198 -162 -114 0
-156 -198 -162 -150 0
-156 -198 -114 -150 0
-156 -162 -114 -150 0
-431 -432 0
-431 -433 0
-432 -433 0
-434 -435 0
-157 431 0
-157 434 0
-158 431 0
-158 435 0
-159 432 0
-159 434 0
-160 432 0
-160 435 0
-161 433 0
-161 434 0
-162 433 0
-162 435 0
-157 199 163 115 0
-157 199 163 151 0
-157 199 115 151 0
-157 163 115 151 0
-158 200 164 116 0
-158 200 164 152 0
-158 200 116 152 0
-158 164 116 152 0
-159 201 165 117 0
-159 201 165 153 0
-159 201 117 153 0
-159 165 117 153 0
-160 202 166 118 0
-160 202 166 154 0
-160 202 118 154 0
-160 166 118 154 0
-161 203 167 119 0
-161 203 167 155 0
-161 203 119 155 0
-161 167 119 155 0
-162 204 168 120 0
-162 204 168 156 0
-162 204 120 156 0
-162 168 120 156 0
-157 -199 -163 -115 0
-157 -199 -163 -151 0
-157 -199 -115 -151 0
-157 -163 -115 -151 0
-158 -200 -164 -116 0
-158 -200 -164 -152 0
-158 -200 -116 -152 0
-158 -164 -116 -152 0
-159 -201 -165 -117 0
-159 -201 -165 -153 0
-159 -201 -117 -153 0
-159 -165 -117 -153 0
-160 -202 -166 -118 0
-160 -202 -166 -154 0
-160 -202 -118 -154 0
-160 -166 -118 -154 0
-161 -203 -167 -119 0
-161 -203 -167 -155 0
-161 -203 -119 -155 0
-161 -167 -119 -155 0
-162 -204 -168 -120 0
-162 -204 -168 -156 0
-162 -204 -120 -156 0
-162 -168 -120 -156 0
-436 -437 0
-436 -438 0
-437 -438 0
-439 -440 0
-163 436 0
-163 439 0
-164 436 0
-164 440 0
-165 437 0
-165 439 0
-166 437 0
-166 440 0
-167 438 0
-167 439 0
-168 438 0
-168 440 0
-163 205 157 0
-163 205 121 0
-163 157 121 0
-164 206 158 0
-164 206 122 0
-164 158 122 0
-165 207 159 0
-165 207 123 0
-165 159 123 0
-166 208 160 0
-166 208 124 0
-166 160 124 0
-167 209 161 0
-167 209 125 0
-167 161 125 0
-168 210 162 0
-168 210 126 0
-168 162 126 0
-163 -205 -157 -121 0
-164 -206 -158 -122 0
-165 -207 -159 -123 0
-166 -208 -160 -124 0
-167 -209 -161 -125 0
-168 -210 -162 -126 0
-441 -442 0
-441 -443 0
-442 -443 0
-444 -445 0
-169 441 0
-169 444 0
-170 441 0
-170 445 0
-171 442 0
-171 444 0
-172 442 0
-172 445 0
-173 443 0
-173 444 0
-174 443 0
-174 445 0
-169 211 175 0
-169 211 127 0
-169 175 127 0
-170 212 176 0
-170 212 128 0
-170 176 128 0
-171 213 177 0
-171 213 129 0
-171 177 129 0
-172 214 178 0
-172 214 130 0
-172 178 130 0
-173 215 179 0
-173 215 131 0
-173 179 131 0
-174 216 180 0
-174 216 132 0
-174 180 132 0
-169 -211 -175 -127 0
-170 -212 -176 -128 0
-171 -213 -177 -129 0
-172 -214 -178 -130 0
-173 -215 -179 -131 0
-174 -216 -180 -132 0
-446 -447 0
-446 -448 0
-447 -448 0
-449 -450 0
-175 446 0
-175 449 0
-176 446 0
-176 450 0
-177 447 0
-177 449 0
-178 447 0
-178 450 0
-179 448 0
-179 449 0
-180 448 0
-180 450 0
-175 217 181 133 0
-175 217 181 169 0
-175 217 133 169 0
-175 181 133 169 0
-176 218 182 134 0
-176 218 182 170 0
-176 218 134 170 0
-176 182 134 170 0
-177 219 183 135 0
-177 219 183 171 0
-177 219 135 171 0
-177 183 135 171 0
-178 220 184 136 0
-178 220 184 172 0
-178 220 136 172 0
-178 184 136 172 0
-179 221 185 137 0
-179 221 185 173 0
-179 221 137 173 0
-179 185 137 173 0
-180 222 186 138 0
-180 222 186 174 0
-180 222 138 174 0
-180 186 138 174 0
-175 -217 -181 -133 0
-175 -217 -181 -169 0
-175 -217 -133 -169 0
-175 -181 -133 -169 0
-176 -218 -182 -134 0
-176 -218 -182 -170 0
-176 -218 -134 -170 0
-176 -182 -134 -170 0
-177 -219 -183 -135 0
-177 -219 -183 -171 0
-177 -219 -135 -171 0
-177 -183 -135 -171 0
-178 -220 -184 -136 0
-178 -220 -184 -172 0
-178 -220 -136 -172 0
-178 -184 -136 -172 0
-179 -221 -185 -137 0
-179 -221 -185 -173 0
-179 -221 -137 -173 0
-179 -185 -137 -173 0
-180 -222 -186 -138 0
-180 -222 -186 -174 0
-180 -222 -138 -174 0
-180 -186 -138 -174 0
184 0
-181 0
-182 0
-183 0
-185 0
-186 0
226 190 142 178 0
-226 -190 0
-226 -142 0
-226 -178 0
-190 -142 0
-190 -178 0
-142 -178 0
-456 -457 0
-456 -458 0
-457 -458 0
-459 -460 0
-187 456 0
-187 459 0
-188 456 0
-188 460 0
-189 457 0
-189 459 0
-190 457 0
-190 460 0
-191 458 0
-191 459 0
-192 458 0
-192 460 0
-187 229 193 145 0
-187 229 193 181 0
-187 229 145 181 0
-187 193 145 181 0
-188 230 194 146 0
-188 230 194 182 0
-188 230 146 182 0
-188 194 146 182 0
-189 231 195 147 0
-189 231 195 183 0
-189 231 147 183 0
-189 195 147 183 0
-190 232 196 148 0
-190 232 196 184 0
-190 232 148 184 0
-190 196 148 184 0
-191 233 197 149 0
-191 233 197 185 0
-191 233 149 185 0
-191 197 149 185 0
-192 234 198 150 0
-192 234 198 186 0
-192 234 150 186 0
-192 198 150 186 0
-187 -229 -193 -145 0
-187 -229 -193 -181 0
-187 -229 -145 -181 0
-187 -193 -145 -181 0
-188 -230 -194 -146 0
-188 -230 -194 -182 0
-188 -230 -146 -182 0
-188 -194 -146 -182 0
-189 -231 -195 -147 0
-189 -231 -195 -183 0
-189 -231 -147 -183 0
-189 -195 -147 -183 0
-190 -232 -196 -148 0
-190 -232 -196 -184 0
-190 -232 -148 -184 0
-190 -196 -148 -184 0
-191 -233 -197 -149 0
-191 -233 -197 -185 0
-191 -233 -149 -185 0
-191 -197 -149 -185 0
-192 -234 -198 -150 0
-192 -234 -198 -186 0
-192 -234 -150 -186 0
-192 -198 -150 -186 0
193 0
-194 0
-195 0
-196 0
-197 0
-198 0
235 199 151 187 0
-235 -199 0
-235 -151 0
-235 -187 0
-199 -151 0
-199 -187 0
-151 -187 0
204 0
-199 0
-200 0
-201 0
-202 0
-203 0
246 210 162 198 0
-246 -210 0
-246 -162 0
-246 -198 0
-210 -162 0
-210 -198 0
-162 -198 0
-471 -472 0
-471 -473 0
-472 -473 0
-474 -475 0
-205 471 0
-205 474 0
-206 471 0
-206 475 0
-207 472 0
-207 474 0
-208 472 0
-208 475 0
-209 473 0
-209 474 0
-210 473 0
-210 475 0
-205 247 199 0
-205 247 163 0
-205 199 163 0
-206 248 200 0
-206 248 164 0
-206 200 164 0
-207 249 201 0
-207 249 165 0
-207 201 165 0
-208 250 202 0
-208 250 166 0
-208 202 166 0
-209 251 203 0
-209 251 167 0
-209 203 167 0
-210 252 204 0
-210 252 168 0
-210 204 168 0
-205 -247 -199 -163 0
-206 -248 -200 -164 0
-207 -249 -201 -165 0
-208 -250 -202 -166 0
-209 -251 -203 -167 0
-210 -252 -204 -168 0
-476 -477 0
-476 -478 0
-477 -478 0
-479 -480 0
-211 476 0
-211 479 0
-212 476 0
-212 480 0
-213 477 0
-213 479 0
-214 477 0
-214 480 0
-215 478 0
-215 479 0
-216 478 0
-216 480 0
-211 253 217 0
-211 253 169 0
-211 217 169 0
-212 254 218 0
-212 254 170 0
-212 218 170 0
-213 255 219 0
-213 255 171 0
-213 219 171 0
-214 256 220 0
-214 256 172 0
-214 220 172 0
-215 257 221 0
-215 257 173 0
-215 221 173 0
-216 258 222 0
-216 258 174 0
-216 222 174 0
-211 -253 -217 -169 0
-212 -254 -218 -170 0
-213 -255 -219 -171 0
-214 -256 -220 -172 0
-215 -257 -221 -173 0
-216 -258 -222 -174 0
218 0
-217 0
-219 0
-220 0
-221 0
-222 0
260 224 176 212 0
-260 -224 0
-260 -176 0
-260 -212 0
-224 -176 0
-224 -212 0
-176 -212 0
-486 -487 0
-486 -488 0
-487 -488 0
-489 -490 0
-223 486 0
-223 489 0
-224 486 0
-224 490 0
-225 487 0
-225 489 0
-226 487 0
-226 490 0
-227 488 0
-227 489 0
-228 488 0
-228 490 0
-223 265 229 181 0
-223 265 229 217 0
-223 265 181 217 0
-223 229 181 217 0
-224 266 230 182 0
-224 266 230 218 0
-224 266 182 218 0
-224 230 182 218 0
-225 267 231 183 0
-225 267 231 219 0
-225 267 183 219 0
-225 231 183 219 0
-226 268 232 184 0
-226 268 232 220 0
-226 268 184 220 0
-226 232 184 220 0
-227 269 233 185 0
-227 269 233 221 0
-227 269 185 221 0
-227 233 185 221 0
-228 270 234 186 0
-228 270 234 222 0
-228 270 186 222 0
-228 234 186 222 0
-223 -265 -229 -181 0
-223 -265 -229 -217 0
-223 -265 -181 -217 0
-223 -229 -181 -217 0
-224 -266 -230 -182 0
-224 -266 -230 -218 0
-224 -266 -182 -218 0
-224 -230 -182 -218 0
-225 -267 -231 -183 0
-225 -267 -231 -219 0
-225 -267 -183 -219 0
-225 -231 -183 -219 0
-226 -268 -232 -184 0
-226 -268 -232 -220 0
-226 -268 -184 -220 0
-226 -232 -184 -220 0
-227 -269 -233 -185 0
-227 -269 -233 -221 0
-227 -269 -185 -221 0
-227 -233 -185 -221 0
-228 -270 -234 -186 0
-228 -270 -234 -222 0
-228 -270 -186 -222 0
-228 -234 -186 -222 0
-491 -492 0
-491 -493 0
-492 -493 0
-494 -495 0
-229 491 0
-229 494 0
-230 491 0
-230 495 0
-231 492 0
-231 494 0
-232 492 0
-232 495 0
-233 493 0
-233 494 0
-234 493 0
-234 495 0
-229 271 235 187 0
-229 271 235 223 0
-229 271 187 223 0
-229 235 187 223 0
-230 272 236 188 0
-230 272 236 224 0
-230 272 188 224 0
-230 236 188 224 0
-231 273 237 189 0
-231 273 237 225 0
-231 273 189 225 0
-231 237 189 225 0
-232 274 238 190 0
-232 274 238 226 0
-232 274 190 226 0
-232 238 190 226 0
-233 275 239 191 0
-233 275 239 227 0
-233 275 191 227 0
-233 239 191 227 0
-234 276 240 192 0
-234 276 240 228 0
-234 276 192 228 0
-234 240 192 228 0
-229 -271 -235 -187 0
-229 -271 -235 -223 0
-229 -271 -187 -223 0
-229 -235 -187 -223 0
-230 -272 -236 -188 0
-230 -272 -236 -224 0
-230 -272 -188 -224 0
-230 -236 -188 -224 0
-231 -273 -237 -189 0
-231 -273 -237 -225 0
-231 -273 -189 -225 0
-231 -237 -189 -225 0
-232 -274 -238 -190 0
-232 -274 -238 -226 0
-232 -274 -190 -226 0
-232 -238 -190 -226 0
-233 -275 -239 -191 0
-233 -275 -239 -227 0
-233 -275 -191 -227 0
-233 -239 -191 -227 0
-234 -276 -240 -192 0
-234 -276 -240 -228 0
-234 -276 -192 -228 0
-234 -240 -192 -228 0
240 0
-235 0
-236 0
-237 0
-238 0
-239 0
282 246 198 234 0
-282 -246 0
-282 -198 0
-282 -234 0
-246 -198 0
-246 -234 0
-198 -234 0
-501 -502 0
-501 -503 0
-502 -503 0
-504 -505 0
-241 501 0
-241 504 0
-242 501 0
-242 505 0
-243 502 0
-243 504 0
-244 502 0
-244 505 0
-245 503 0
-245 504 0
-246 503 0
-246 505 0
-241 283 247 199 0
-241 283 247 235 0
-241 283 199 235 0
-241 247 199 235 0
-242 284 248 200 0
-242 284 248 236 0
-242 284 200 236 0
-242 248 200 236 0
-243 285 249 201 0
-243 285 249 237 0
-243 285 201 237 0
-243 249 201 237 0
-244 286 250 202 0
-244 286 250 238 0
-244 286 202 238 0
-244 250 202 238 0
-245 287 251 203 0
-245 287 251 239 0
-245 287 203 239 0
-245 251 203 239 0
-246 288 252 204 0
-246 288 252 240 0
-246 288 204 240 0
-246 252 204 240 0
-241 -283 -247 -199 0
-241 -283 -247 -235 0
-241 -283 -199 -235 0
-241 -247 -199 -235 0
-242 -284 -248 -200 0
-242 -284 -248 -236 0
-242 -284 -200 -236 0
-242 -248 -200 -236 0
-243 -285 -249 -201 0
-243 -285 -249 -237 0
-243 -285 -201 -237 0
-243 -249 -201 -237 0
-244 -286 -250 -202 0
-244 -286 -250 -238 0
-244 -286 -202 -238 0
-244 -250 -202 -238 0
-245 -287 -251 -203 0
-245 -287 -251 -239 0
-245 -287 -203 -239 0
-245 -251 -203 -239 0
-246 -288 -252 -204 0
-246 -288 -252 -240 0
-246 -288 -204 -240 0
-246 -252 -204 -240 0
-506 -507 0
-506 -508 0
-507 -508 0
-509 -510 0
-247 506 0
-247 509 0
-248 506 0
-248 510 0
-249 507 0
-249 509 0
-250 507 0
-250 510 0
-251 508 0
-251 509 0
-252 508 0
-252 510 0
-247 289 241 0
-247 289 205 0
-247 241 205 0
-248 290 242 0
-248 290 206 0
-248 242 206 0
-249 291 243 0
-249 291 207 0
-249 243 207 0
-250 292 244 0
-250 292 208 0
-250 244 208 0
-251 293 245 0
-251 293 209 0
-251 245 209 0
-252 294 246 0
-252 294 210 0
-252 246 210 0
-247 -289 -241 -205 0
-248 -290 -242 -206 0
-249 -291 -243 -207 0
-250 -292 -244 -208 0
-251 -293 -245 -209 0
-252 -294 -246 -210 0
-511 -512 0
-511 -513 0
-512 -513 0
-514 -515 0
-253 511 0
-253 514 0
-254 511 0
-254 515 0
-255 512 0
-255 514 0
-256 512 0
-256 515 0
-257 513 0
-257 514 0
-258 513 0
-258 515 0
-253 211 0
-253 259 0
-254 212 0
-254 260 0
-255 213 0
-255 261 0
-256 214 0
-256 262 0
-257 215 0
-257 263 0
-258 216 0
-258 264 0
-516 -517 0
-516 -518 0
-517 -518 0
-519 -520 0
-259 516 0
-259 519 0
-260 516 0
-260 520 0
-261 517 0
-261 519 0
-262 517 0
-262 520 0
-263 518 0
-263 519 0
-264 518 0
-264 520 0
-259 217 265 0
-259 217 253 0
-259 265 253 0
-260 218 266 0
-260 218 254 0
-260 266 254 0
-261 219 267 0
-261 219 255 0
-261 267 255 0
-262 220 268 0
-262 220 256 0
-262 268 256 0
-263 221 269 0
-263 221 257 0
-263 269 257 0
-264 222 270 0
-264 222 258 0
-264 270 258 0
-259 -217 -265 -253 0
-260 -218 -266 -254 0
-261 -219 -267 -255 0
-262 -220 -268 -256 0
-263 -221 -269 -257 0
-264 -222 -270 -258 0
-521 -522 0
-521 -523 0
-522 -523 0
-524 -525 0
-265 521 0
-265 524 0
-266 521 0
-266 525 0
-267 522 0
-267 524 0
-268 522 0
-268 525 0
-269 523 0
-269 524 0
-270 523 0
-270 525 0
-265 223 271 0
-265 223 259 0
-265 271 259 0
-266 224 272 0
-266 224 260 0
-266 272 260 0
-267 225 273 0
-267 225 261 0
-267 273 261 0
-268 226 274 0
-268 226 262 0
-268 274 262 0
-269 227 275 0
-269 227 263 0
-269 275 263 0
-270 228 276 0
-270 228 264 0
-270 276 264 0
-265 -223 -271 -259 0
-266 -224 -272 -260 0
-267 -225 -273 -261 0
-268 -226 -274 -262 0
-269 -227 -275 -263 0
-270 -228 -276 -264 0
-526 -527 0
-526 -528 0
-527 -528 0
-529 -530 0
-271 526 0
-271 529 0
-272 526 0
-272 530 0
-273 527 0
-273 529 0
-274 527 0
-274 530 0
-275 528 0
-275 529 0
-276 528 0
-276 530 0
-271 229 277 0
-271 229 265 0
-271 277 265 0
-272 230 278 0
-272 230 266 0
-272 278 266 0
-273 231 279 0
-273 231 267 0
-273 279 267 0
-274 232 280 0
-274 232 268 0
-274 280 268 0
-275 233 281 0
-275 233 269 0
-275 281 269 0
-276 234 282 0
-276 234 270 0
-276 282 270 0
-271 -229 -277 -265 0
-272 -230 -278 -266 0
-273 -231 -279 -267 0
-274 -232 -280 -268 0
-275 -233 -281 -269 0
-276 -234 -282 -270 0
-531 -532 0
-531 -533 0
-532 -533 0
-534 -535 0
-277 531 0
-277 534 0
-278 531 0
-278 535 0
-279 532 0
-279 534 0
-280 532 0
-280 535 0
-281 533 0
-281 534 0
-282 533 0
-282 535 0
-277 235 283 0
-277 235 271 0
-277 283 271 0
-278 236 284 0
-278 236 272 0
-278 284 272 0
-279 237 285 0
-279 237 273 0
-279 285 273 0
-280 238 286 0
-280 238 274 0
-280 286 274 0
-281 239 287 0
-281 239 275 0
-281 287 275 0
-282 240 288 0
-282 240 276 0
-282 288 276 0
-277 -235 -283 -271 0
-278 -236 -284 -272 0
-279 -237 -285 -273 0
-280 -238 -286 -274 0
-281 -239 -287 -275 0
-282 -240 -288 -276 0
-536 -537 0
-536 -538 0
-537 -538 0
-539 -540 0
-283 536 0
-283 539 0
-284 536 0
-284 540 0
-285 537 0
-285 539 0
-286 537 0
-286 540 0
-287 538 0
-287 539 0
-288 538 0
-288 540 0
-283 241 289 0
-283 241 277 0
-283 289 277 0
-284 242 290 0
-284 242 278 0
-284 290 278 0
-285 243 291 0
-285 243 279 0
-285 291 279 0
-286 244 292 0
-286 244 280 0
-286 292 280 0
-287 245 293 0
-287 245 281 0
-287 293 281 0
-288 246 294 0
-288 246 282 0
-288 294 282 0
-283 -241 -289 -277 0
-284 -242 -290 -278 0
-285 -243 -291 -279 0
-286 -244 -292 -280 0
-287 -245 -293 -281 0
-288 -246 -294 -282 0
-541 -542 0
-541 -543 0
-542 -543 0
-544 -545 0
-289 541 0
-289 544 0
-290 541 0
-290 545 0
-291 542 0
-291 544 0
-292 542 0
-292 545 0
-293 543 0
-293 544 0
-294 543 0
-294 545 0
-289 247 0
-289 283 0
-290 248 0
-290 284 0
-291 249 0
-291 285 0
-292 250 0
-292 286 0
-293 251 0
-293 287 0
-294 252 0
-294 288 0
85 91 103 121 0
133 139 145 151 157 163 0
19 103 145 187 229 271 0
86 92 104 122 0
134 140 146 152 158 164 0
170 176 188 206 0
14 140 224 266 0
136 142 148 154 160 166 0
11 53 95 137 179 263 0
17 143 227 269 0
23 107 149 191 233 275 0
29 71 155 281 0